NAME          STABLIZE
ROWS
 G  N
 G  AM-N
 G  NI-N
 G  UR-N
 G  STN
 G  P
 G  K
 G  MG
 G  S
 G  B
 G  CU
 G  FE
 G  MN
 G  ZN
 G  DEN
 G  AGROTAIN
 G  BAG80
 G  BAG50
 E  WT
 N  COST
 N  PRICE
COLUMNS
*234567890123456789012345678901234567890123456789012345678901
    I184600   N             0.180000   AM-N          0.180000   
    I184600   P             0.460000   DEN           0.016043   
    I184600   WT            1.000000   COST        183.000000   
    I184600   PRICE       228.750000   SCALE      2000.000000   
    I115200   N             0.110000   AM-N          0.110000   
    I115200   P             0.520000   DEN           0.015426   
    I115200   WT            1.000000   COST        183.000000   
    I115200   PRICE       228.750000   SCALE      2000.000000   
    I004600   P             0.460000   DEN           0.014344   
    I004600   WT            1.000000   COST        143.000000   
    I004600   PRICE       178.750000   SCALE      2000.000000   
    I340000   N             0.340000   AM-N          0.170000   
    I340000   NI-N          0.170000   DEN           0.022560   
    I340000   WT            1.000000   COST        150.000000   
    I340000   PRICE       187.500000   SCALE      2000.000000   
    I460000M  N             0.460000   UR-N          0.460000   
    I460000M  STN           0.460000   DEN           0.020833   
    I460000M  WT            1.000000   COST        150.000000   
    I460000M  PRICE       250.000000   SCALE      2000.000000   
    I460000   N             0.460000   UR-N          0.460000   
    I460000   STN           0.460000   DEN           0.020889   
    I460000   AGROTAIN     -0.010000   WT            1.000000   
    I460000   COST        160.000000   PRICE       200.000000   
    I460000   SCALE      2000.000000   
    AGROTAIN  STN           0.000100   DEN           0.013882   
    AGROTAIN  AGROTAIN      2.265000   WT            1.000000   
    AGROTAIN  COST         38.000000   PRICE        45.000000   
    AGROTAIN  SCALE         8.830000   
    I210000   N             0.210000   AM-N          0.210000   
    I210000   S             0.240000   DEN           0.020463   
    I210000   WT            1.000000   COST        110.000000   
    I210000   PRICE       137.500000   SCALE      2000.000000   
    I000060   K             0.600000   DEN           0.015449   
    I000060   WT            1.000000   COST         90.000000   
    I000060   PRICE       112.500000   SCALE      2000.000000   
    I000050   K             0.500000   S             0.170000   
    I000050   DEN           0.013536   WT            1.000000   
    I000050   COST        140.000000   PRICE       175.000000   
    I000050   SCALE      2000.000000   
    I000022   K             0.220000   MG            0.110000   
    I000022   S             0.220000   DEN           0.010273   
    I000022   WT            1.000000   COST        110.000000   
    I000022   PRICE       137.500000   SCALE      2000.000000   
    I20S36Z   S             0.200000   ZN            0.360000   
    I20S36Z   DEN           0.013039   WT            1.000000   
    I20S36Z   COST        400.000000   PRICE       500.000000   
    I20S36Z   SCALE      2000.000000   
    I14B000   B             0.143000   DEN           0.021940   
    I14B000   WT            1.000000   COST          0.200000   
    I14B000   PRICE         0.250000   SCALE         1.000000   
    I90S000   S             0.900000   DEN           0.015040   
    I90S000   WT            1.000000   COST        250.000000   
    I90S000   PRICE       312.500000   SCALE      2000.000000   
    IF305G    S             0.050000   B             0.020000   
    IF305G    CU            0.020000   FE            0.080000   
    IF305G    MN            0.060000   ZN            0.200000   
    IF305G    DEN           0.010027   WT            1.000000   
    IF305G    COST        300.000000   PRICE       375.000000   
    IF305G    SCALE         1.000000   
    SEED      DEN           0.020053   WT            1.000000   
    SEED      COST          0.250000   PRICE         0.250000   
    SEED      SCALE         1.000000   
    I000000   DEN           0.011141   WT            1.000000   
    I000000   COST         28.000000   PRICE        35.000000   
    I000000   SCALE      2000.000000   
    LASSO     DEN           0.014999   WT            1.000000   
    LASSO     COST          7.500000   PRICE         9.147500   
    LASSO     SCALE         2.225000   
    BAG50     BAG50         0.500000   COST          1.000000   
    BAG50     PRICE         1.250000   SCALE         1.000000   
    BAG80     BAG80         0.800000   COST          1.000000   
    BAG80     PRICE         1.250000   SCALE         1.000000   
    PRODUCT   BAG80        -0.010000   BAG50        -0.010000   
    PRODUCT   WT           -1.000000   COST          0.000000   
    PRODUCT   PRIC